784 1512
1 2 4
1 29 2
2 3 2
2 30 5
3 4 5
3 31 3
4 5 2
4 32 5
5 6 3
5 33 3
6 7 1
6 34 5
7 8 2
7 35 5
8 9 2
8 36 2
9 10 3
9 37 1
10 11 2
10 38 4
11 12 1
11 39 2
12 13 4
12 40 5
13 14 1
13 41 1
14 15 4
14 42 3
15 16 2
15 43 5
16 17 4
16 44 1
17 18 5
17 45 3
18 19 3
18 46 2
19 20 4
19 47 3
20 21 3
20 48 5
21 22 2
21 49 2
22 23 1
22 50 3
23 24 5
23 51 3
24 25 5
24 52 5
25 26 3
25 53 3
26 27 5
26 54 5
27 28 1
27 55 4
28 56 4
29 30 4
29 57 3
30 31 5
30 58 3
31 32 4
31 59 1
32 33 1
32 60 1
33 34 4
33 61 2
34 35 2
34 62 3
35 36 3
35 63 3
36 37 3
36 64 5
37 38 3
37 65 5
38 39 5
38 66 3
39 40 5
39 67 2
40 41 3
40 68 3
41 42 5
41 69 5
42 43 1
42 70 1
43 44 1
43 71 5
44 45 3
44 72 1
45 46 5
45 73 2
46 47 1
46 74 1
47 48 4
47 75 1
48 49 5
48 76 3
49 50 4
49 77 4
50 51 1
50 78 2
51 52 4
51 79 3
52 53 4
52 80 5
53 54 3
53 81 5
54 55 3
54 82 1
55 56 5
55 83 5
56 84 1
57 58 5
57 85 4
58 59 4
58 86 3
59 60 5
59 87 2
60 61 2
60 88 3
61 62 3
61 89 4
62 63 3
62 90 4
63 64 4
63 91 3
64 65 3
64 92 3
65 66 1
65 93 5
66 67 4
66 94 4
67 68 5
67 95 4
68 69 5
68 96 3
69 70 1
69 97 5
70 71 1
70 98 5
71 72 5
71 99 5
72 73 4
72 100 4
73 74 2
73 101 5
74 75 4
74 102 2
75 76 4
75 103 1
76 77 5
76 104 4
77 78 3
77 105 1
78 79 4
78 106 5
79 80 1
79 107 5
80 81 2
80 108 1
81 82 4
81 109 5
82 83 4
82 110 4
83 84 2
83 111 3
84 112 2
85 86 2
85 113 4
86 87 4
86 114 4
87 88 3
87 115 2
88 89 4
88 116 5
89 90 5
89 117 1
90 91 5
90 118 3
91 92 4
91 119 2
92 93 5
92 120 4
93 94 3
93 121 1
94 95 4
94 122 4
95 96 3
95 123 1
96 97 1
96 124 3
97 98 2
97 125 5
98 99 4
98 126 1
99 100 5
99 127 4
100 101 5
100 128 5
101 102 5
101 129 5
102 103 1
102 130 5
103 104 4
103 131 3
104 105 1
104 132 1
105 106 5
105 133 1
106 107 5
106 134 5
107 108 5
107 135 1
108 109 4
108 136 2
109 110 3
109 137 5
110 111 4
110 138 3
111 112 2
111 139 1
112 140 5
113 114 3
113 141 4
114 115 5
114 142 2
115 116 4
115 143 3
116 117 2
116 144 5
117 118 5
117 145 5
118 119 4
118 146 5
119 120 3
119 147 5
120 121 1
120 148 5
121 122 2
121 149 3
122 123 4
122 150 3
123 124 4
123 151 4
124 125 5
124 152 4
125 126 2
125 153 1
126 127 1
126 154 2
127 128 2
127 155 5
128 129 2
128 156 2
129 130 5
129 157 5
130 131 5
130 158 5
131 132 4
131 159 2
132 133 4
132 160 3
133 134 3
133 161 1
134 135 5
134 162 3
135 136 4
135 163 1
136 137 1
136 164 4
137 138 1
137 165 2
138 139 2
138 166 4
139 140 5
139 167 5
140 168 2
141 142 5
141 169 5
142 143 2
142 170 4
143 144 1
143 171 1
144 145 1
144 172 4
145 146 1
145 173 5
146 147 3
146 174 3
147 148 2
147 175 5
148 149 2
148 176 5
149 150 1
149 177 5
150 151 2
150 178 4
151 152 1
151 179 5
152 153 2
152 180 4
153 154 5
153 181 2
154 155 4
154 182 5
155 156 5
155 183 4
156 157 4
156 184 2
157 158 2
157 185 3
158 159 1
158 186 2
159 160 5
159 187 4
160 161 1
160 188 3
161 162 3
161 189 3
162 163 2
162 190 1
163 164 1
163 191 5
164 165 5
164 192 4
165 166 1
165 193 4
166 167 5
166 194 2
167 168 4
167 195 4
168 196 3
169 170 2
169 197 1
170 171 2
170 198 4
171 172 4
171 199 4
172 173 3
172 200 2
173 174 4
173 201 3
174 175 2
174 202 1
175 176 3
175 203 1
176 177 5
176 204 4
177 178 2
177 205 1
178 179 5
178 206 5
179 180 5
179 207 1
180 181 3
180 208 5
181 182 2
181 209 4
182 183 5
182 210 4
183 184 2
183 211 1
184 185 5
184 212 3
185 186 1
185 213 4
186 187 4
186 214 1
187 188 4
187 215 1
188 189 2
188 216 3
189 190 3
189 217 3
190 191 1
190 218 5
191 192 2
191 219 4
192 193 3
192 220 3
193 194 3
193 221 3
194 195 3
194 222 5
195 196 1
195 223 3
196 224 1
197 198 3
197 225 1
198 199 5
198 226 5
199 200 3
199 227 4
200 201 4
200 228 4
201 202 2
201 229 3
202 203 5
202 230 4
203 204 5
203 231 1
204 205 3
204 232 2
205 206 4
205 233 2
206 207 4
206 234 3
207 208 1
207 235 1
208 209 5
208 236 4
209 210 1
209 237 1
210 211 1
210 238 3
211 212 4
211 239 4
212 213 5
212 240 3
213 214 5
213 241 1
214 215 4
214 242 4
215 216 1
215 243 3
216 217 5
216 244 5
217 218 5
217 245 5
218 219 3
218 246 5
219 220 4
219 247 2
220 221 4
220 248 3
221 222 2
221 249 3
222 223 3
222 250 2
223 224 1
223 251 1
224 252 4
225 226 3
225 253 3
226 227 5
226 254 5
227 228 4
227 255 1
228 229 3
228 256 1
229 230 2
229 257 2
230 231 1
230 258 5
231 232 4
231 259 2
232 233 4
232 260 3
233 234 5
233 261 4
234 235 3
234 262 2
235 236 1
235 263 2
236 237 4
236 264 1
237 238 5
237 265 3
238 239 1
238 266 5
239 240 5
239 267 4
240 241 4
240 268 1
241 242 3
241 269 2
242 243 2
242 270 3
243 244 4
243 271 4
244 245 3
244 272 3
245 246 1
245 273 1
246 247 4
246 274 2
247 248 4
247 275 2
248 249 2
248 276 3
249 250 4
249 277 2
250 251 3
250 278 5
251 252 1
251 279 4
252 280 4
253 254 4
253 281 2
254 255 4
254 282 3
255 256 3
255 283 1
256 257 2
256 284 1
257 258 1
257 285 4
258 259 3
258 286 2
259 260 1
259 287 2
260 261 2
260 288 2
261 262 3
261 289 1
262 263 2
262 290 1
263 264 2
263 291 5
264 265 3
264 292 4
265 266 2
265 293 4
266 267 1
266 294 2
267 268 1
267 295 5
268 269 2
268 296 5
269 270 3
269 297 5
270 271 4
270 298 2
271 272 2
271 299 1
272 273 3
272 300 5
273 274 2
273 301 2
274 275 1
274 302 1
275 276 5
275 303 3
276 277 3
276 304 1
277 278 4
277 305 3
278 279 5
278 306 2
279 280 2
279 307 3
280 308 4
281 282 2
281 309 4
282 283 1
282 310 3
283 284 3
283 311 4
284 285 1
284 312 2
285 286 5
285 313 1
286 287 5
286 314 2
287 288 5
287 315 1
288 289 3
288 316 2
289 290 1
289 317 1
290 291 2
290 318 3
291 292 4
291 319 1
292 293 3
292 320 4
293 294 5
293 321 4
294 295 1
294 322 3
295 296 3
295 323 3
296 297 5
296 324 4
297 298 2
297 325 1
298 299 1
298 326 1
299 300 3
299 327 5
300 301 1
300 328 5
301 302 4
301 329 4
302 303 1
302 330 2
303 304 5
303 331 1
304 305 4
304 332 3
305 306 4
305 333 3
306 307 5
306 334 2
307 308 4
307 335 4
308 336 4
309 310 1
309 337 5
310 311 5
310 338 3
311 312 3
311 339 1
312 313 3
312 340 1
313 314 4
313 341 4
314 315 3
314 342 1
315 316 2
315 343 5
316 317 2
316 344 1
317 318 4
317 345 5
318 319 5
318 346 2
319 320 5
319 347 2
320 321 3
320 348 4
321 322 4
321 349 1
322 323 1
322 350 4
323 324 5
323 351 4
324 325 3
324 352 1
325 326 5
325 353 2
326 327 2
326 354 3
327 328 4
327 355 3
328 329 2
328 356 3
329 330 2
329 357 4
330 331 4
330 358 4
331 332 2
331 359 1
332 333 1
332 360 5
333 334 1
333 361 2
334 335 2
334 362 2
335 336 3
335 363 3
336 364 5
337 338 5
337 365 4
338 339 5
338 366 5
339 340 1
339 367 3
340 341 1
340 368 2
341 342 4
341 369 4
342 343 4
342 370 5
343 344 2
343 371 2
344 345 3
344 372 4
345 346 3
345 373 1
346 347 4
346 374 5
347 348 3
347 375 3
348 349 3
348 376 3
349 350 3
349 377 5
350 351 4
350 378 4
351 352 3
351 379 2
352 353 3
352 380 4
353 354 3
353 381 2
354 355 3
354 382 3
355 356 2
355 383 3
356 357 4
356 384 5
357 358 2
357 385 1
358 359 2
358 386 5
359 360 1
359 387 3
360 361 5
360 388 5
361 362 3
361 389 5
362 363 1
362 390 3
363 364 2
363 391 2
364 392 5
365 366 5
365 393 2
366 367 1
366 394 4
367 368 5
367 395 2
368 369 3
368 396 5
369 370 5
369 397 4
370 371 3
370 398 4
371 372 5
371 399 4
372 373 5
372 400 5
373 374 2
373 401 1
374 375 4
374 402 5
375 376 2
375 403 4
376 377 1
376 404 2
377 378 1
377 405 5
378 379 4
378 406 4
379 380 1
379 407 3
380 381 3
380 408 5
381 382 5
381 409 5
382 383 4
382 410 1
383 384 4
383 411 2
384 385 1
384 412 3
385 386 5
385 413 1
386 387 4
386 414 4
387 388 5
387 415 4
388 389 3
388 416 5
389 390 2
389 417 4
390 391 2
390 418 1
391 392 1
391 419 2
392 420 1
393 394 3
393 421 5
394 395 3
394 422 4
395 396 2
395 423 5
396 397 5
396 424 5
397 398 3
397 425 5
398 399 5
398 426 2
399 400 5
399 427 2
400 401 5
400 428 5
401 402 1
401 429 4
402 403 3
402 430 4
403 404 4
403 431 5
404 405 2
404 432 4
405 406 5
405 433 5
406 407 4
406 434 2
407 408 2
407 435 5
408 409 2
408 436 2
409 410 4
409 437 5
410 411 1
410 438 1
411 412 1
411 439 3
412 413 4
412 440 2
413 414 5
413 441 1
414 415 4
414 442 4
415 416 3
415 443 2
416 417 5
416 444 4
417 418 5
417 445 5
418 419 4
418 446 5
419 420 3
419 447 5
420 448 1
421 422 1
421 449 1
422 423 2
422 450 1
423 424 3
423 451 4
424 425 1
424 452 1
425 426 2
425 453 3
426 427 4
426 454 1
427 428 3
427 455 1
428 429 3
428 456 1
429 430 4
429 457 1
430 431 3
430 458 1
431 432 2
431 459 1
432 433 5
432 460 5
433 434 2
433 461 5
434 435 1
434 462 1
435 436 3
435 463 2
436 437 3
436 464 3
437 438 3
437 465 1
438 439 5
438 466 3
439 440 1
439 467 3
440 441 3
440 468 3
441 442 2
441 469 1
442 443 1
442 470 5
443 444 1
443 471 5
444 445 5
444 472 4
445 446 1
445 473 1
446 447 3
446 474 3
447 448 1
447 475 4
448 476 4
449 450 5
449 477 3
450 451 3
450 478 5
451 452 2
451 479 1
452 453 1
452 480 1
453 454 1
453 481 1
454 455 1
454 482 2
455 456 5
455 483 3
456 457 5
456 484 5
457 458 1
457 485 4
458 459 2
458 486 4
459 460 4
459 487 1
460 461 3
460 488 2
461 462 3
461 489 1
462 463 1
462 490 2
463 464 2
463 491 3
464 465 3
464 492 4
465 466 4
465 493 2
466 467 1
466 494 4
467 468 4
467 495 3
468 469 2
468 496 1
469 470 4
469 497 5
470 471 2
470 498 4
471 472 5
471 499 5
472 473 4
472 500 5
473 474 5
473 501 1
474 475 1
474 502 2
475 476 4
475 503 3
476 504 2
477 478 5
477 505 1
478 479 3
478 506 4
479 480 5
479 507 1
480 481 5
480 508 1
481 482 3
481 509 2
482 483 1
482 510 4
483 484 1
483 511 1
484 485 2
484 512 3
485 486 4
485 513 5
486 487 4
486 514 4
487 488 3
487 515 2
488 489 1
488 516 2
489 490 1
489 517 2
490 491 2
490 518 2
491 492 1
491 519 4
492 493 1
492 520 5
493 494 3
493 521 2
494 495 2
494 522 4
495 496 5
495 523 3
496 497 5
496 524 4
497 498 4
497 525 3
498 499 4
498 526 5
499 500 1
499 527 2
500 501 2
500 528 4
501 502 4
501 529 1
502 503 5
502 530 2
503 504 3
503 531 3
504 532 1
505 506 2
505 533 3
506 507 3
506 534 4
507 508 3
507 535 4
508 509 3
508 536 4
509 510 5
509 537 1
510 511 1
510 538 3
511 512 3
511 539 4
512 513 1
512 540 1
513 514 3
513 541 3
514 515 5
514 542 1
515 516 3
515 543 4
516 517 3
516 544 5
517 518 2
517 545 3
518 519 3
518 546 1
519 520 3
519 547 2
520 521 4
520 548 5
521 522 3
521 549 5
522 523 2
522 550 2
523 524 2
523 551 1
524 525 5
524 552 1
525 526 4
525 553 5
526 527 5
526 554 3
527 528 2
527 555 4
528 529 1
528 556 3
529 530 1
529 557 5
530 531 2
530 558 3
531 532 1
531 559 5
532 560 5
533 534 1
533 561 3
534 535 2
534 562 2
535 536 5
535 563 2
536 537 2
536 564 1
537 538 4
537 565 5
538 539 2
538 566 4
539 540 5
539 567 2
540 541 3
540 568 5
541 542 3
541 569 1
542 543 3
542 570 3
543 544 3
543 571 3
544 545 2
544 572 5
545 546 5
545 573 1
546 547 2
546 574 1
547 548 2
547 575 4
548 549 3
548 576 1
549 550 2
549 577 1
550 551 3
550 578 1
551 552 5
551 579 3
552 553 3
552 580 4
553 554 4
553 581 2
554 555 5
554 582 1
555 556 5
555 583 5
556 557 1
556 584 2
557 558 3
557 585 4
558 559 1
558 586 5
559 560 2
559 587 5
560 588 4
561 562 1
561 589 5
562 563 4
562 590 3
563 564 1
563 591 1
564 565 3
564 592 2
565 566 1
565 593 1
566 567 3
566 594 4
567 568 3
567 595 3
568 569 5
568 596 1
569 570 3
569 597 3
570 571 4
570 598 5
571 572 4
571 599 1
572 573 5
572 600 3
573 574 3
573 601 1
574 575 3
574 602 4
575 576 4
575 603 2
576 577 5
576 604 2
577 578 5
577 605 2
578 579 2
578 606 1
579 580 4
579 607 3
580 581 2
580 608 1
581 582 2
581 609 3
582 583 1
582 610 5
583 584 5
583 611 4
584 585 2
584 612 2
585 586 2
585 613 4
586 587 4
586 614 3
587 588 4
587 615 4
588 616 4
589 590 2
589 617 2
590 591 1
590 618 5
591 592 4
591 619 1
592 593 2
592 620 4
593 594 4
593 621 1
594 595 2
594 622 1
595 596 5
595 623 3
596 597 1
596 624 4
597 598 2
597 625 5
598 599 3
598 626 4
599 600 4
599 627 3
600 601 5
600 628 1
601 602 4
601 629 4
602 603 4
602 630 2
603 604 2
603 631 3
604 605 5
604 632 3
605 606 5
605 633 1
606 607 3
606 634 3
607 608 3
607 635 1
608 609 5
608 636 4
609 610 5
609 637 4
610 611 2
610 638 1
611 612 1
611 639 2
612 613 4
612 640 2
613 614 3
613 641 4
614 615 5
614 642 5
615 616 3
615 643 2
616 644 2
617 618 2
617 645 1
618 619 4
618 646 1
619 620 5
619 647 5
620 621 4
620 648 4
621 622 1
621 649 3
622 623 2
622 650 4
623 624 4
623 651 4
624 625 1
624 652 1
625 626 3
625 653 4
626 627 1
626 654 1
627 628 2
627 655 3
628 629 2
628 656 1
629 630 5
629 657 5
630 631 3
630 658 3
631 632 3
631 659 5
632 633 4
632 660 1
633 634 2
633 661 4
634 635 4
634 662 2
635 636 5
635 663 5
636 637 2
636 664 3
637 638 2
637 665 2
638 639 2
638 666 5
639 640 3
639 667 1
640 641 5
640 668 5
641 642 4
641 669 2
642 643 2
642 670 1
643 644 2
643 671 5
644 672 2
645 646 1
645 673 2
646 647 3
646 674 5
647 648 1
647 675 1
648 649 3
648 676 4
649 650 1
649 677 2
650 651 1
650 678 4
651 652 2
651 679 1
652 653 2
652 680 3
653 654 1
653 681 2
654 655 1
654 682 1
655 656 2
655 683 5
656 657 4
656 684 1
657 658 3
657 685 5
658 659 1
658 686 5
659 660 3
659 687 2
660 661 1
660 688 1
661 662 5
661 689 3
662 663 5
662 690 3
663 664 3
663 691 1
664 665 5
664 692 3
665 666 3
665 693 2
666 667 3
666 694 2
667 668 2
667 695 3
668 669 4
668 696 3
669 670 5
669 697 1
670 671 1
670 698 3
671 672 1
671 699 3
672 700 5
673 674 1
673 701 3
674 675 1
674 702 1
675 676 5
675 703 2
676 677 1
676 704 4
677 678 5
677 705 3
678 679 4
678 706 5
679 680 5
679 707 4
680 681 1
680 708 5
681 682 5
681 709 4
682 683 5
682 710 1
683 684 2
683 711 4
684 685 4
684 712 2
685 686 4
685 713 1
686 687 2
686 714 3
687 688 1
687 715 2
688 689 5
688 716 4
689 690 5
689 717 4
690 691 4
690 718 3
691 692 1
691 719 3
692 693 5
692 720 1
693 694 4
693 721 5
694 695 4
694 722 3
695 696 4
695 723 4
696 697 5
696 724 3
697 698 5
697 725 3
698 699 2
698 726 2
699 700 2
699 727 5
700 728 4
701 702 4
701 729 5
702 703 1
702 730 1
703 704 5
703 731 5
704 705 2
704 732 2
705 706 4
705 733 5
706 707 3
706 734 2
707 708 2
707 735 4
708 709 3
708 736 1
709 710 5
709 737 1
710 711 5
710 738 3
711 712 2
711 739 4
712 713 3
712 740 4
713 714 1
713 741 1
714 715 1
714 742 3
715 716 5
715 743 1
716 717 3
716 744 2
717 718 2
717 745 1
718 719 3
718 746 1
719 720 1
719 747 3
720 721 3
720 748 2
721 722 4
721 749 5
722 723 5
722 750 2
723 724 4
723 751 5
724 725 3
724 752 4
725 726 4
725 753 3
726 727 2
726 754 4
727 728 4
727 755 1
728 756 3
729 730 5
729 757 4
730 731 2
730 758 4
731 732 2
731 759 2
732 733 1
732 760 5
733 734 5
733 761 1
734 735 1
734 762 5
735 736 2
735 763 3
736 737 2
736 764 1
737 738 2
737 765 1
738 739 5
738 766 2
739 740 2
739 767 4
740 741 3
740 768 5
741 742 4
741 769 4
742 743 5
742 770 1
743 744 2
743 771 2
744 745 3
744 772 4
745 746 2
745 773 3
746 747 4
746 774 4
747 748 1
747 775 4
748 749 3
748 776 3
749 750 4
749 777 5
750 751 3
750 778 4
751 752 5
751 779 1
752 753 5
752 780 3
753 754 1
753 781 5
754 755 2
754 782 2
755 756 4
755 783 1
756 784 2
757 758 1
758 759 3
759 760 3
760 761 1
761 762 3
762 763 1
763 764 4
764 765 1
765 766 3
766 767 2
767 768 3
768 769 2
769 770 1
770 771 2
771 772 5
772 773 2
773 774 3
774 775 1
775 776 4
776 777 4
777 778 3
778 779 4
779 780 3
780 781 5
781 782 4
782 783 3
783 784 3
